(set-logic HORN)
(declare-datatypes ((Nat_273 0)) (((Z_872 ) (S_242 (unS_308 Nat_273)))))
(declare-fun diseqNat_273 (Nat_273 Nat_273) Bool)
(declare-fun unS_309 (Nat_273 Nat_273) Bool)
(declare-fun isZ_227 (Nat_273) Bool)
(declare-fun isS_227 (Nat_273) Bool)
(assert (forall ((x_22530 Nat_273))
	(unS_309 x_22530 (S_242 x_22530))))
(assert (isZ_227 Z_872))
(assert (forall ((x_22532 Nat_273))
	(isS_227 (S_242 x_22532))))
(assert (forall ((x_22533 Nat_273))
	(diseqNat_273 Z_872 (S_242 x_22533))))
(assert (forall ((x_22534 Nat_273))
	(diseqNat_273 (S_242 x_22534) Z_872)))
(assert (forall ((x_22535 Nat_273) (x_22536 Nat_273))
	(=> (diseqNat_273 x_22535 x_22536)
	    (diseqNat_273 (S_242 x_22535) (S_242 x_22536)))))
(declare-fun add_164 (Nat_273 Nat_273 Nat_273) Bool)
(declare-fun minus_158 (Nat_273 Nat_273 Nat_273) Bool)
(declare-fun le_154 (Nat_273 Nat_273) Bool)
(declare-fun ge_154 (Nat_273 Nat_273) Bool)
(declare-fun lt_160 (Nat_273 Nat_273) Bool)
(declare-fun gt_155 (Nat_273 Nat_273) Bool)
(declare-fun mult_154 (Nat_273 Nat_273 Nat_273) Bool)
(declare-fun div_154 (Nat_273 Nat_273 Nat_273) Bool)
(declare-fun mod_154 (Nat_273 Nat_273 Nat_273) Bool)
(assert (forall ((y_879 Nat_273))
	(add_164 y_879 Z_872 y_879)))
(assert (forall ((x_22524 Nat_273) (y_879 Nat_273) (r_182 Nat_273))
	(=> (add_164 r_182 x_22524 y_879)
	    (add_164 (S_242 r_182) (S_242 x_22524) y_879))))
(assert (forall ((y_879 Nat_273))
	(minus_158 Z_872 Z_872 y_879)))
(assert (forall ((x_22524 Nat_273) (y_879 Nat_273) (r_182 Nat_273))
	(=> (minus_158 r_182 x_22524 y_879)
	    (minus_158 (S_242 r_182) (S_242 x_22524) y_879))))
(assert (forall ((y_879 Nat_273))
	(le_154 Z_872 y_879)))
(assert (forall ((x_22524 Nat_273) (y_879 Nat_273))
	(=> (le_154 x_22524 y_879)
	    (le_154 (S_242 x_22524) (S_242 y_879)))))
(assert (forall ((y_879 Nat_273))
	(ge_154 y_879 Z_872)))
(assert (forall ((x_22524 Nat_273) (y_879 Nat_273))
	(=> (ge_154 x_22524 y_879)
	    (ge_154 (S_242 x_22524) (S_242 y_879)))))
(assert (forall ((y_879 Nat_273))
	(lt_160 Z_872 (S_242 y_879))))
(assert (forall ((x_22524 Nat_273) (y_879 Nat_273))
	(=> (lt_160 x_22524 y_879)
	    (lt_160 (S_242 x_22524) (S_242 y_879)))))
(assert (forall ((y_879 Nat_273))
	(gt_155 (S_242 y_879) Z_872)))
(assert (forall ((x_22524 Nat_273) (y_879 Nat_273))
	(=> (gt_155 x_22524 y_879)
	    (gt_155 (S_242 x_22524) (S_242 y_879)))))
(assert (forall ((y_879 Nat_273))
	(mult_154 Z_872 Z_872 y_879)))
(assert (forall ((x_22524 Nat_273) (y_879 Nat_273) (r_182 Nat_273) (z_873 Nat_273))
	(=>	(and (mult_154 r_182 x_22524 y_879)
			(add_164 z_873 r_182 y_879))
		(mult_154 z_873 (S_242 x_22524) y_879))))
(assert (forall ((x_22524 Nat_273) (y_879 Nat_273))
	(=> (lt_160 x_22524 y_879)
	    (div_154 Z_872 x_22524 y_879))))
(assert (forall ((x_22524 Nat_273) (y_879 Nat_273) (r_182 Nat_273) (z_873 Nat_273))
	(=>	(and (ge_154 x_22524 y_879)
			(minus_158 z_873 x_22524 y_879)
			(div_154 r_182 z_873 y_879))
		(div_154 (S_242 r_182) x_22524 y_879))))
(assert (forall ((x_22524 Nat_273) (y_879 Nat_273))
	(=> (lt_160 x_22524 y_879)
	    (mod_154 x_22524 x_22524 y_879))))
(assert (forall ((x_22524 Nat_273) (y_879 Nat_273) (r_182 Nat_273) (z_873 Nat_273))
	(=>	(and (ge_154 x_22524 y_879)
			(minus_158 z_873 x_22524 y_879)
			(mod_154 r_182 z_873 y_879))
		(mod_154 r_182 x_22524 y_879))))
(declare-datatypes ((Bin_5 0)) (((One_5 ) (ZeroAnd_5 (projZeroAnd_10 Bin_5)) (OneAnd_5 (projOneAnd_10 Bin_5)))))
(declare-fun diseqBin_5 (Bin_5 Bin_5) Bool)
(declare-fun projZeroAnd_11 (Bin_5 Bin_5) Bool)
(declare-fun projOneAnd_11 (Bin_5 Bin_5) Bool)
(declare-fun isOne_5 (Bin_5) Bool)
(declare-fun isZeroAnd_5 (Bin_5) Bool)
(declare-fun isOneAnd_5 (Bin_5) Bool)
(assert (forall ((x_22538 Bin_5))
	(projZeroAnd_11 x_22538 (ZeroAnd_5 x_22538))))
(assert (forall ((x_22540 Bin_5))
	(projOneAnd_11 x_22540 (OneAnd_5 x_22540))))
(assert (isOne_5 One_5))
(assert (forall ((x_22542 Bin_5))
	(isZeroAnd_5 (ZeroAnd_5 x_22542))))
(assert (forall ((x_22543 Bin_5))
	(isOneAnd_5 (OneAnd_5 x_22543))))
(assert (forall ((x_22544 Bin_5))
	(diseqBin_5 One_5 (ZeroAnd_5 x_22544))))
(assert (forall ((x_22545 Bin_5))
	(diseqBin_5 One_5 (OneAnd_5 x_22545))))
(assert (forall ((x_22546 Bin_5))
	(diseqBin_5 (ZeroAnd_5 x_22546) One_5)))
(assert (forall ((x_22547 Bin_5))
	(diseqBin_5 (OneAnd_5 x_22547) One_5)))
(assert (forall ((x_22548 Bin_5) (x_22549 Bin_5))
	(diseqBin_5 (ZeroAnd_5 x_22548) (OneAnd_5 x_22549))))
(assert (forall ((x_22550 Bin_5) (x_22551 Bin_5))
	(diseqBin_5 (OneAnd_5 x_22550) (ZeroAnd_5 x_22551))))
(assert (forall ((x_22552 Bin_5) (x_22553 Bin_5))
	(=> (diseqBin_5 x_22552 x_22553)
	    (diseqBin_5 (ZeroAnd_5 x_22552) (ZeroAnd_5 x_22553)))))
(assert (forall ((x_22554 Bin_5) (x_22555 Bin_5))
	(=> (diseqBin_5 x_22554 x_22555)
	    (diseqBin_5 (OneAnd_5 x_22554) (OneAnd_5 x_22555)))))
(declare-fun toNat_3 (Nat_273 Bin_5) Bool)
(assert (forall ((x_22525 Nat_273) (x_22494 Nat_273) (x_22495 Nat_273) (x_22496 Nat_273) (ys_78 Bin_5))
	(=>	(and (toNat_3 x_22495 ys_78)
			(toNat_3 x_22496 ys_78)
			(add_164 x_22525 (S_242 Z_872) x_22495)
			(add_164 x_22494 x_22525 x_22496))
		(toNat_3 x_22494 (OneAnd_5 ys_78)))))
(assert (forall ((x_22497 Nat_273) (x_22498 Nat_273) (x_22499 Nat_273) (xs_270 Bin_5))
	(=>	(and (toNat_3 x_22498 xs_270)
			(toNat_3 x_22499 xs_270)
			(add_164 x_22497 x_22498 x_22499))
		(toNat_3 x_22497 (ZeroAnd_5 xs_270)))))
(assert (toNat_3 (S_242 Z_872) One_5))
(declare-fun s_241 (Bin_5 Bin_5) Bool)
(assert (forall ((x_22502 Bin_5) (ys_79 Bin_5))
	(=> (s_241 x_22502 ys_79)
	    (s_241 (ZeroAnd_5 x_22502) (OneAnd_5 ys_79)))))
(assert (forall ((xs_271 Bin_5))
	(s_241 (OneAnd_5 xs_271) (ZeroAnd_5 xs_271))))
(assert (s_241 (ZeroAnd_5 One_5) One_5))
(declare-fun plus_44 (Bin_5 Bin_5 Bin_5) Bool)
(assert (forall ((x_22506 Bin_5) (x_22507 Bin_5) (ys_80 Bin_5) (x_22492 Bin_5))
	(=>	(and (plus_44 x_22506 x_22492 ys_80)
			(s_241 x_22507 x_22506))
		(plus_44 (ZeroAnd_5 x_22507) (OneAnd_5 x_22492) (OneAnd_5 ys_80)))))
(assert (forall ((x_22509 Bin_5) (zs_19 Bin_5) (x_22492 Bin_5))
	(=> (plus_44 x_22509 x_22492 zs_19)
	    (plus_44 (OneAnd_5 x_22509) (OneAnd_5 x_22492) (ZeroAnd_5 zs_19)))))
(assert (forall ((x_22510 Bin_5) (x_22492 Bin_5))
	(=> (s_241 x_22510 (OneAnd_5 x_22492))
	    (plus_44 x_22510 (OneAnd_5 x_22492) One_5))))
(assert (forall ((x_22513 Bin_5) (xs_272 Bin_5) (z_871 Bin_5))
	(=> (plus_44 x_22513 z_871 xs_272)
	    (plus_44 (OneAnd_5 x_22513) (ZeroAnd_5 z_871) (OneAnd_5 xs_272)))))
(assert (forall ((x_22515 Bin_5) (ys_81 Bin_5) (z_871 Bin_5))
	(=> (plus_44 x_22515 z_871 ys_81)
	    (plus_44 (ZeroAnd_5 x_22515) (ZeroAnd_5 z_871) (ZeroAnd_5 ys_81)))))
(assert (forall ((x_22516 Bin_5) (z_871 Bin_5))
	(=> (s_241 x_22516 (ZeroAnd_5 z_871))
	    (plus_44 x_22516 (ZeroAnd_5 z_871) One_5))))
(assert (forall ((x_22518 Bin_5) (y_877 Bin_5))
	(=> (s_241 x_22518 y_877)
	    (plus_44 x_22518 One_5 y_877))))
(assert (forall ((x_22528 Nat_273) (x_22520 Bin_5) (x_22521 Nat_273) (x_22522 Nat_273) (x_22523 Nat_273) (x_22493 Bin_5) (y_878 Bin_5))
	(=>	(and true
			(diseqNat_273 x_22521 x_22528)
			(plus_44 x_22520 x_22493 y_878)
			(toNat_3 x_22521 x_22520)
			(toNat_3 x_22522 x_22493)
			(toNat_3 x_22523 y_878)
			(add_164 x_22528 x_22522 x_22523))
		false)))
(check-sat)
